column=10;
row=10;
Board=[|8,1,0,10,2,0,0,0,4,9|0,5,10,7,8,0,1,0,0,3|0,9,3,0,0,0,0,0,0,8|0,3,4,0,10,0,0,0,8,0|0,4,0,0,3,0,0,0,0,1|0,0,0,5,0,4,0,0,0,2|0,0,0,0,5,1,4,0,0,0|0,0,0,3,0,5,0,0,10,0|0,0,6,0,0,0,0,0,0,5|0,0,1,0,0,0,10,0,5,7|];
